p cnf 818 2152
c uncontrollable inputs:
a 12 13 15 17 19 20 21 22 23 24 25 0
c state variables:
a 26 27 28 29 30 31 32 33 34 35 36 37 38 39 40 41 42 43 44 45 46 47 48 49 50 51 52 53 54 55 56 57 58 59 60 61 62 0
c next state variables:
a 63 64 65 66 67 68 69 70 71 72 73 74 75 76 77 78 79 80 81 82 83 84 85 86 87 88 89 90 91 92 93 94 95 96 97 98 99 0
c controllable inputs
d 1 12 13 15 17 19 20 21 22 23 24 25 26 27 28 29 30 31 32 33 34 35 36 37 38 39 40 41 42 43 44 45 46 47 48 49 50 51 52 53 54 55 56 57 58 59 60 61 62 0
d 2 12 13 15 17 19 20 21 22 23 24 25 26 27 28 29 30 31 32 33 34 35 36 37 38 39 40 41 42 43 44 45 46 47 48 49 50 51 52 53 54 55 56 57 58 59 60 61 62 0
d 3 12 13 15 17 19 20 21 22 23 24 25 26 27 28 29 30 31 32 33 34 35 36 37 38 39 40 41 42 43 44 45 46 47 48 49 50 51 52 53 54 55 56 57 58 59 60 61 62 0
d 4 12 13 15 17 19 20 21 22 23 24 25 26 27 28 29 30 31 32 33 34 35 36 37 38 39 40 41 42 43 44 45 46 47 48 49 50 51 52 53 54 55 56 57 58 59 60 61 62 0
d 5 12 13 15 17 19 20 21 22 23 24 25 26 27 28 29 30 31 32 33 34 35 36 37 38 39 40 41 42 43 44 45 46 47 48 49 50 51 52 53 54 55 56 57 58 59 60 61 62 0
d 6 12 13 15 17 19 20 21 22 23 24 25 26 27 28 29 30 31 32 33 34 35 36 37 38 39 40 41 42 43 44 45 46 47 48 49 50 51 52 53 54 55 56 57 58 59 60 61 62 0
d 7 12 13 15 17 19 20 21 22 23 24 25 26 27 28 29 30 31 32 33 34 35 36 37 38 39 40 41 42 43 44 45 46 47 48 49 50 51 52 53 54 55 56 57 58 59 60 61 62 0
d 8 12 13 15 17 19 20 21 22 23 24 25 26 27 28 29 30 31 32 33 34 35 36 37 38 39 40 41 42 43 44 45 46 47 48 49 50 51 52 53 54 55 56 57 58 59 60 61 62 0
d 9 12 13 15 17 19 20 21 22 23 24 25 26 27 28 29 30 31 32 33 34 35 36 37 38 39 40 41 42 43 44 45 46 47 48 49 50 51 52 53 54 55 56 57 58 59 60 61 62 0
d 10 12 13 15 17 19 20 21 22 23 24 25 26 27 28 29 30 31 32 33 34 35 36 37 38 39 40 41 42 43 44 45 46 47 48 49 50 51 52 53 54 55 56 57 58 59 60 61 62 0
d 11 12 13 15 17 19 20 21 22 23 24 25 26 27 28 29 30 31 32 33 34 35 36 37 38 39 40 41 42 43 44 45 46 47 48 49 50 51 52 53 54 55 56 57 58 59 60 61 62 0
d 14 12 13 15 17 19 20 21 22 23 24 25 26 27 28 29 30 31 32 33 34 35 36 37 38 39 40 41 42 43 44 45 46 47 48 49 50 51 52 53 54 55 56 57 58 59 60 61 62 0
d 16 12 13 15 17 19 20 21 22 23 24 25 26 27 28 29 30 31 32 33 34 35 36 37 38 39 40 41 42 43 44 45 46 47 48 49 50 51 52 53 54 55 56 57 58 59 60 61 62 0
d 18 12 13 15 17 19 20 21 22 23 24 25 26 27 28 29 30 31 32 33 34 35 36 37 38 39 40 41 42 43 44 45 46 47 48 49 50 51 52 53 54 55 56 57 58 59 60 61 62 0
c winning region (state)
d 100 26 27 28 29 30 31 32 33 34 35 36 37 38 39 40 41 42 43 44 45 46 47 48 49 50 51 52 53 54 55 56 57 58 59 60 61 62 0
c winning region (next state)
d 101 63 64 65 66 67 68 69 70 71 72 73 74 75 76 77 78 79 80 81 82 83 84 85 86 87 88 89 90 91 92 93 94 95 96 97 98 99 0
c tseitin variables
e 102 103 104 105 106 107 108 109 110 111 112 113 114 115 116 117 118 119 120 121 122 123 124 125 126 127 128 129 130 131 132 133 134 135 136 137 138 139 140 141 142 143 144 145 146 147 148 149 150 151 152 153 154 155 156 157 158 159 160 161 162 163 164 165 166 167 168 169 170 171 172 173 174 175 176 177 178 179 180 181 182 183 184 185 186 187 188 189 190 191 192 193 194 195 196 197 198 199 200 201 202 203 204 205 206 207 208 209 210 211 212 213 214 215 216 217 218 219 220 221 222 223 224 225 226 227 228 229 230 231 232 233 234 235 236 237 238 239 240 241 242 243 244 245 246 247 248 249 250 251 252 253 254 255 256 257 258 259 260 261 262 263 264 265 266 267 268 269 270 271 272 273 274 275 276 277 278 279 280 281 282 283 284 285 286 287 288 289 290 291 292 293 294 295 296 297 298 299 300 301 302 303 304 305 306 307 308 309 310 311 312 313 314 315 316 317 318 319 320 321 322 323 324 325 326 327 328 329 330 331 332 333 334 335 336 337 338 339 340 341 342 343 344 345 346 347 348 349 350 351 352 353 354 355 356 357 358 359 360 361 362 363 364 365 366 367 368 369 370 371 372 373 374 375 376 377 378 379 380 381 382 383 384 385 386 387 388 389 390 391 392 393 394 395 396 397 398 399 400 401 402 403 404 405 406 407 408 409 410 411 412 413 414 415 416 417 418 419 420 421 422 423 424 425 426 427 428 429 430 431 432 433 434 435 436 437 438 439 440 441 442 443 444 445 446 447 448 449 450 451 452 453 454 455 456 457 458 459 460 461 462 463 464 465 466 467 468 469 470 471 472 473 474 475 476 477 478 479 480 481 482 483 484 485 486 487 488 489 490 491 492 493 494 495 496 497 498 499 500 501 502 503 504 505 506 507 508 509 510 511 512 513 514 515 516 517 518 519 520 521 522 523 524 525 526 527 528 529 530 531 532 533 534 535 536 537 538 539 540 541 542 543 544 545 546 547 548 549 550 551 552 553 554 555 556 557 558 559 560 561 562 563 564 565 566 567 568 569 570 571 572 573 574 575 576 577 578 579 580 581 582 583 584 585 586 587 588 589 590 591 592 593 594 595 596 597 598 599 600 601 602 603 604 605 606 607 608 609 610 611 612 613 614 615 616 617 618 619 620 621 622 623 624 625 626 627 628 629 630 631 632 633 634 635 636 637 638 639 640 641 642 643 644 645 646 647 648 649 650 651 652 653 654 655 656 657 658 659 660 661 662 663 664 665 666 667 668 669 670 671 672 673 674 675 676 677 678 679 680 681 682 683 684 685 686 687 688 689 690 691 692 693 694 695 696 697 698 699 700 701 702 703 704 705 706 707 708 709 710 711 712 713 714 715 716 717 718 719 720 721 722 723 724 725 726 727 728 729 730 731 732 733 734 735 736 737 738 739 740 741 742 743 744 745 746 747 748 749 750 751 752 753 754 755 756 757 758 759 760 761 762 763 764 765 766 767 768 769 770 771 772 773 774 775 776 777 778 779 780 781 782 783 784 785 786 787 788 789 790 791 792 793 794 795 796 797 798 799 800 801 802 803 804 805 806 807 808 809 810 811 812 813 814 815 816 817 818 0
c clauses:
-102 -99 0
-102 62 0
102 99 -62 0
-103 99 0
-103 -62 0
103 -99 62 0
-104 -102 0
-104 -103 0
104 102 103 0
-105 -95 0
-105 58 0
105 95 -58 0
-106 95 0
-106 -58 0
106 -95 58 0
-107 -105 0
-107 -106 0
107 105 106 0
-108 -96 0
-108 59 0
108 96 -59 0
-109 96 0
-109 -59 0
109 -96 59 0
-110 -108 0
-110 -109 0
110 108 109 0
-111 107 0
-111 110 0
111 -107 -110 0
-112 -97 0
-112 60 0
112 97 -60 0
-113 97 0
-113 -60 0
113 -97 60 0
-114 -112 0
-114 -113 0
114 112 113 0
-115 -98 0
-115 61 0
115 98 -61 0
-116 98 0
-116 -61 0
116 -98 61 0
-117 -115 0
-117 -116 0
117 115 116 0
-118 114 0
-118 117 0
118 -114 -117 0
-119 111 0
-119 118 0
119 -111 -118 0
-120 104 0
-120 119 0
120 -104 -119 0
-121 -63 0
-121 26 0
121 63 -26 0
-122 63 0
-122 -26 0
122 -63 26 0
-123 -121 0
-123 -122 0
123 121 122 0
-124 -64 0
-124 27 0
124 64 -27 0
-125 64 0
-125 -27 0
125 -64 27 0
-126 -124 0
-126 -125 0
126 124 125 0
-127 123 0
-127 126 0
127 -123 -126 0
-128 -65 0
-128 28 0
128 65 -28 0
-129 65 0
-129 -28 0
129 -65 28 0
-130 -128 0
-130 -129 0
130 128 129 0
-131 -66 0
-131 29 0
131 66 -29 0
-132 66 0
-132 -29 0
132 -66 29 0
-133 -131 0
-133 -132 0
133 131 132 0
-134 130 0
-134 133 0
134 -130 -133 0
-135 127 0
-135 134 0
135 -127 -134 0
-136 -67 0
-136 30 0
136 67 -30 0
-137 67 0
-137 -30 0
137 -67 30 0
-138 -136 0
-138 -137 0
138 136 137 0
-139 -68 0
-139 31 0
139 68 -31 0
-140 68 0
-140 -31 0
140 -68 31 0
-141 -139 0
-141 -140 0
141 139 140 0
-142 138 0
-142 141 0
142 -138 -141 0
-143 -69 0
-143 32 0
143 69 -32 0
-144 69 0
-144 -32 0
144 -69 32 0
-145 -143 0
-145 -144 0
145 143 144 0
-146 -70 0
-146 33 0
146 70 -33 0
-147 70 0
-147 -33 0
147 -70 33 0
-148 -146 0
-148 -147 0
148 146 147 0
-149 145 0
-149 148 0
149 -145 -148 0
-150 142 0
-150 149 0
150 -142 -149 0
-151 135 0
-151 150 0
151 -135 -150 0
-152 -71 0
-152 34 0
152 71 -34 0
-153 71 0
-153 -34 0
153 -71 34 0
-154 -152 0
-154 -153 0
154 152 153 0
-155 -72 0
-155 35 0
155 72 -35 0
-156 72 0
-156 -35 0
156 -72 35 0
-157 -155 0
-157 -156 0
157 155 156 0
-158 154 0
-158 157 0
158 -154 -157 0
-159 -73 0
-159 36 0
159 73 -36 0
-160 73 0
-160 -36 0
160 -73 36 0
-161 -159 0
-161 -160 0
161 159 160 0
-162 -74 0
-162 37 0
162 74 -37 0
-163 74 0
-163 -37 0
163 -74 37 0
-164 -162 0
-164 -163 0
164 162 163 0
-165 161 0
-165 164 0
165 -161 -164 0
-166 158 0
-166 165 0
166 -158 -165 0
-167 -75 0
-167 38 0
167 75 -38 0
-168 75 0
-168 -38 0
168 -75 38 0
-169 -167 0
-169 -168 0
169 167 168 0
-170 -76 0
-170 39 0
170 76 -39 0
-171 76 0
-171 -39 0
171 -76 39 0
-172 -170 0
-172 -171 0
172 170 171 0
-173 169 0
-173 172 0
173 -169 -172 0
-174 -77 0
-174 40 0
174 77 -40 0
-175 77 0
-175 -40 0
175 -77 40 0
-176 -174 0
-176 -175 0
176 174 175 0
-177 -78 0
-177 41 0
177 78 -41 0
-178 78 0
-178 -41 0
178 -78 41 0
-179 -177 0
-179 -178 0
179 177 178 0
-180 176 0
-180 179 0
180 -176 -179 0
-181 173 0
-181 180 0
181 -173 -180 0
-182 166 0
-182 181 0
182 -166 -181 0
-183 151 0
-183 182 0
183 -151 -182 0
-184 -79 0
-184 42 0
184 79 -42 0
-185 79 0
-185 -42 0
185 -79 42 0
-186 -184 0
-186 -185 0
186 184 185 0
-187 -80 0
-187 43 0
187 80 -43 0
-188 80 0
-188 -43 0
188 -80 43 0
-189 -187 0
-189 -188 0
189 187 188 0
-190 186 0
-190 189 0
190 -186 -189 0
-191 -81 0
-191 44 0
191 81 -44 0
-192 81 0
-192 -44 0
192 -81 44 0
-193 -191 0
-193 -192 0
193 191 192 0
-194 -82 0
-194 45 0
194 82 -45 0
-195 82 0
-195 -45 0
195 -82 45 0
-196 -194 0
-196 -195 0
196 194 195 0
-197 193 0
-197 196 0
197 -193 -196 0
-198 190 0
-198 197 0
198 -190 -197 0
-199 -83 0
-199 46 0
199 83 -46 0
-200 83 0
-200 -46 0
200 -83 46 0
-201 -199 0
-201 -200 0
201 199 200 0
-202 -84 0
-202 47 0
202 84 -47 0
-203 84 0
-203 -47 0
203 -84 47 0
-204 -202 0
-204 -203 0
204 202 203 0
-205 201 0
-205 204 0
205 -201 -204 0
-206 -85 0
-206 48 0
206 85 -48 0
-207 85 0
-207 -48 0
207 -85 48 0
-208 -206 0
-208 -207 0
208 206 207 0
-209 -86 0
-209 49 0
209 86 -49 0
-210 86 0
-210 -49 0
210 -86 49 0
-211 -209 0
-211 -210 0
211 209 210 0
-212 208 0
-212 211 0
212 -208 -211 0
-213 205 0
-213 212 0
213 -205 -212 0
-214 198 0
-214 213 0
214 -198 -213 0
-215 -87 0
-215 50 0
215 87 -50 0
-216 87 0
-216 -50 0
216 -87 50 0
-217 -215 0
-217 -216 0
217 215 216 0
-218 -88 0
-218 51 0
218 88 -51 0
-219 88 0
-219 -51 0
219 -88 51 0
-220 -218 0
-220 -219 0
220 218 219 0
-221 217 0
-221 220 0
221 -217 -220 0
-222 -89 0
-222 52 0
222 89 -52 0
-223 89 0
-223 -52 0
223 -89 52 0
-224 -222 0
-224 -223 0
224 222 223 0
-225 -90 0
-225 53 0
225 90 -53 0
-226 90 0
-226 -53 0
226 -90 53 0
-227 -225 0
-227 -226 0
227 225 226 0
-228 224 0
-228 227 0
228 -224 -227 0
-229 221 0
-229 228 0
229 -221 -228 0
-230 -91 0
-230 54 0
230 91 -54 0
-231 91 0
-231 -54 0
231 -91 54 0
-232 -230 0
-232 -231 0
232 230 231 0
-233 -92 0
-233 55 0
233 92 -55 0
-234 92 0
-234 -55 0
234 -92 55 0
-235 -233 0
-235 -234 0
235 233 234 0
-236 232 0
-236 235 0
236 -232 -235 0
-237 -93 0
-237 56 0
237 93 -56 0
-238 93 0
-238 -56 0
238 -93 56 0
-239 -237 0
-239 -238 0
239 237 238 0
-240 -94 0
-240 57 0
240 94 -57 0
-241 94 0
-241 -57 0
241 -94 57 0
-242 -240 0
-242 -241 0
242 240 241 0
-243 239 0
-243 242 0
243 -239 -242 0
-244 236 0
-244 243 0
244 -236 -243 0
-245 229 0
-245 244 0
245 -229 -244 0
-246 214 0
-246 245 0
246 -214 -245 0
-247 183 0
-247 246 0
247 -183 -246 0
-248 120 0
-248 247 0
248 -120 -247 0
-249 101 0
-249 -100 0
249 -101 100 0
-250 -101 0
-250 100 0
250 101 -100 0
-251 -249 0
-251 -250 0
251 249 250 0
-252 248 0
-252 -251 0
252 -248 251 0
-253 -99 0
-253 25 0
253 99 -25 0
-254 99 0
-254 -25 0
254 -99 25 0
-255 -253 0
-255 -254 0
255 253 254 0
-256 58 0
-256 26 0
256 -58 -26 0
-257 32 0
-257 26 0
257 -32 -26 0
-258 -12 0
-258 257 0
258 12 -257 0
-259 12 0
-259 -257 0
259 -12 257 0
-260 -258 0
-260 -259 0
260 258 259 0
-261 44 0
-261 26 0
261 -44 -26 0
-262 -21 0
-262 261 0
262 21 -261 0
-263 21 0
-263 -261 0
263 -21 261 0
-264 -262 0
-264 -263 0
264 262 263 0
-265 260 0
-265 264 0
265 -260 -264 0
-266 51 0
-266 26 0
266 -51 -26 0
-267 -41 0
-267 266 0
267 41 -266 0
-268 41 0
-268 26 0
268 -41 -26 0
-269 -51 0
-269 268 0
269 51 -268 0
-270 -267 0
-270 -269 0
270 267 269 0
-271 -265 0
-271 270 0
271 265 -270 0
-272 21 0
-272 267 0
272 -21 -267 0
-273 -12 0
-273 269 0
273 12 -269 0
-274 29 0
-274 26 0
274 -29 -26 0
-275 -24 0
-275 274 0
275 24 -274 0
-276 28 0
-276 275 0
276 -28 -275 0
-277 28 0
-277 26 0
277 -28 -26 0
-278 24 0
-278 -277 0
278 -24 277 0
-279 62 0
-279 26 0
279 -62 -26 0
-280 -25 0
-280 279 0
280 25 -279 0
-281 60 0
-281 280 0
281 -60 -280 0
-282 60 0
-282 26 0
282 -60 -26 0
-283 25 0
-283 -282 0
283 -25 282 0
-284 56 0
-284 26 0
284 -56 -26 0
-285 23 0
-285 284 0
285 -23 -284 0
-286 36 0
-286 26 0
286 -36 -26 0
-287 -56 0
-287 286 0
287 56 -286 0
-288 -23 0
-288 287 0
288 23 -287 0
-289 46 0
-289 26 0
289 -46 -26 0
-290 22 0
-290 289 0
290 -22 -289 0
-291 39 0
-291 26 0
291 -39 -26 0
-292 -46 0
-292 291 0
292 46 -291 0
-293 -22 0
-293 292 0
293 22 -292 0
-294 42 0
-294 26 0
294 -42 -26 0
-295 20 0
-295 294 0
295 -20 -294 0
-296 43 0
-296 26 0
296 -43 -26 0
-297 -42 0
-297 296 0
297 42 -296 0
-298 -20 0
-298 297 0
298 20 -297 0
-299 38 0
-299 26 0
299 -38 -26 0
-300 19 0
-300 299 0
300 -19 -299 0
-301 47 0
-301 26 0
301 -47 -26 0
-302 -38 0
-302 301 0
302 38 -301 0
-303 -19 0
-303 302 0
303 19 -302 0
-304 35 0
-304 26 0
304 -35 -26 0
-305 17 0
-305 304 0
305 -17 -304 0
-306 57 0
-306 26 0
306 -57 -26 0
-307 -35 0
-307 306 0
307 35 -306 0
-308 -17 0
-308 307 0
308 17 -307 0
-309 33 0
-309 26 0
309 -33 -26 0
-310 15 0
-310 309 0
310 -15 -309 0
-311 59 0
-311 26 0
311 -59 -26 0
-312 -33 0
-312 311 0
312 33 -311 0
-313 -15 0
-313 312 0
313 15 -312 0
-314 31 0
-314 26 0
314 -31 -26 0
-315 13 0
-315 314 0
315 -13 -314 0
-316 61 0
-316 26 0
316 -61 -26 0
-317 -31 0
-317 316 0
317 31 -316 0
-318 -13 0
-318 317 0
318 13 -317 0
-319 -315 0
-319 -318 0
319 315 318 0
-320 -313 0
-320 319 0
320 313 -319 0
-321 -310 0
-321 320 0
321 310 -320 0
-322 -308 0
-322 321 0
322 308 -321 0
-323 -305 0
-323 322 0
323 305 -322 0
-324 -303 0
-324 323 0
324 303 -323 0
-325 -300 0
-325 324 0
325 300 -324 0
-326 -298 0
-326 325 0
326 298 -325 0
-327 -295 0
-327 326 0
327 295 -326 0
-328 -293 0
-328 327 0
328 293 -327 0
-329 -290 0
-329 328 0
329 290 -328 0
-330 -288 0
-330 329 0
330 288 -329 0
-331 -285 0
-331 330 0
331 285 -330 0
-332 -283 0
-332 331 0
332 283 -331 0
-333 -281 0
-333 332 0
333 281 -332 0
-334 -278 0
-334 333 0
334 278 -333 0
-335 -276 0
-335 334 0
335 276 -334 0
-336 -273 0
-336 335 0
336 273 -335 0
-337 -272 0
-337 336 0
337 272 -336 0
-338 -271 0
-338 337 0
338 271 -337 0
-339 -256 0
-339 338 0
339 256 -338 0
-340 -95 0
-340 -339 0
340 95 339 0
-341 95 0
-341 339 0
341 -95 -339 0
-342 -340 0
-342 -341 0
342 340 341 0
-343 -96 0
-343 15 0
343 96 -15 0
-344 96 0
-344 -15 0
344 -96 15 0
-345 -343 0
-345 -344 0
345 343 344 0
-346 342 0
-346 345 0
346 -342 -345 0
-347 -97 0
-347 9 0
347 97 -9 0
-348 97 0
-348 -9 0
348 -97 9 0
-349 -347 0
-349 -348 0
349 347 348 0
-350 -98 0
-350 13 0
350 98 -13 0
-351 98 0
-351 -13 0
351 -98 13 0
-352 -350 0
-352 -351 0
352 350 351 0
-353 349 0
-353 352 0
353 -349 -352 0
-354 346 0
-354 353 0
354 -346 -353 0
-355 255 0
-355 354 0
355 -255 -354 0
-356 34 0
-356 26 0
356 -34 -26 0
-357 -60 0
-357 356 0
357 60 -356 0
-358 277 0
-358 357 0
358 -277 -357 0
-359 -34 0
-359 282 0
359 34 -282 0
-360 -277 0
-360 359 0
360 277 -359 0
-361 27 0
-361 26 0
361 -27 -26 0
-362 -277 0
-362 -282 0
362 277 282 0
-363 -361 0
-363 -362 0
363 361 362 0
-364 -360 0
-364 -363 0
364 360 363 0
-365 -358 0
-365 364 0
365 358 -364 0
-366 -64 0
-366 365 0
366 64 -365 0
-367 64 0
-367 -365 0
367 -64 365 0
-368 -366 0
-368 -367 0
368 366 367 0
-369 63 0
-369 368 0
369 -63 -368 0
-370 -65 0
-370 11 0
370 65 -11 0
-371 65 0
-371 -11 0
371 -65 11 0
-372 -370 0
-372 -371 0
372 370 371 0
-373 -66 0
-373 24 0
373 66 -24 0
-374 66 0
-374 -24 0
374 -66 24 0
-375 -373 0
-375 -374 0
375 373 374 0
-376 372 0
-376 375 0
376 -372 -375 0
-377 369 0
-377 376 0
377 -369 -376 0
-378 -13 0
-378 -3 0
378 13 3 0
-379 13 0
-379 3 0
379 -13 -3 0
380 -378 0
380 -379 0
-380 378 379 0
-381 55 0
-381 26 0
381 -55 -26 0
-382 54 0
-382 26 0
382 -54 -26 0
-383 53 0
-383 26 0
383 -53 -26 0
-384 52 0
-384 26 0
384 -52 -26 0
-385 -383 0
-385 -384 0
385 383 384 0
-386 -382 0
-386 385 0
386 382 -385 0
-387 -381 0
-387 386 0
387 381 -386 0
-388 380 0
-388 387 0
388 -380 -387 0
-389 15 0
-389 -4 0
389 -15 4 0
-390 -15 0
-390 4 0
390 15 -4 0
-391 -389 0
-391 -390 0
391 389 390 0
-392 -53 0
-392 384 0
392 53 -384 0
-393 392 0
-393 -382 0
393 -392 382 0
-394 393 0
-394 -381 0
394 -393 381 0
-395 391 0
-395 394 0
395 -391 -394 0
-396 17 0
-396 -5 0
396 -17 5 0
-397 -17 0
-397 5 0
397 17 -5 0
-398 -396 0
-398 -397 0
398 396 397 0
-399 -52 0
-399 383 0
399 52 -383 0
-400 -382 0
-400 399 0
400 382 -399 0
-401 -381 0
-401 400 0
401 381 -400 0
-402 398 0
-402 401 0
402 -398 -401 0
-403 19 0
-403 -6 0
403 -19 6 0
-404 -19 0
-404 6 0
404 19 -6 0
-405 -403 0
-405 -404 0
405 403 404 0
-406 52 0
-406 383 0
406 -52 -383 0
-407 -382 0
-407 406 0
407 382 -406 0
-408 -381 0
-408 407 0
408 381 -407 0
-409 405 0
-409 408 0
409 -405 -408 0
-410 20 0
-410 -7 0
410 -20 7 0
-411 -20 0
-411 7 0
411 20 -7 0
-412 -410 0
-412 -411 0
412 410 411 0
-413 382 0
-413 385 0
413 -382 -385 0
-414 -381 0
-414 413 0
414 381 -413 0
-415 412 0
-415 414 0
415 -412 -414 0
-416 22 0
-416 -8 0
416 -22 8 0
-417 -22 0
-417 8 0
417 22 -8 0
-418 -416 0
-418 -417 0
418 416 417 0
-419 392 0
-419 382 0
419 -392 -382 0
-420 -381 0
-420 419 0
420 381 -419 0
-421 418 0
-421 420 0
421 -418 -420 0
-422 23 0
-422 -10 0
422 -23 10 0
-423 -23 0
-423 10 0
423 23 -10 0
-424 -422 0
-424 -423 0
424 422 423 0
-425 382 0
-425 399 0
425 -382 -399 0
-426 -381 0
-426 425 0
426 381 -425 0
-427 424 0
-427 426 0
427 -424 -426 0
-428 48 0
-428 26 0
428 -48 -26 0
-429 382 0
-429 406 0
429 -382 -406 0
-430 -381 0
-430 429 0
430 381 -429 0
-431 -428 0
-431 430 0
431 428 -430 0
-432 30 0
-432 26 0
432 -30 -26 0
-433 -24 0
-433 11 0
433 24 -11 0
-434 24 0
-434 -11 0
434 -24 11 0
-435 -433 0
-435 -434 0
435 433 434 0
-436 432 0
-436 435 0
436 -432 -435 0
-437 -25 0
-437 9 0
437 25 -9 0
-438 25 0
-438 -9 0
438 -25 9 0
-439 -437 0
-439 -438 0
439 437 438 0
-440 -439 0
-440 -432 0
440 439 432 0
441 -436 0
441 -440 0
-441 436 440 0
-442 -431 0
-442 -441 0
442 431 441 0
-443 -427 0
-443 442 0
443 427 -442 0
-444 -421 0
-444 443 0
444 421 -443 0
-445 -415 0
-445 444 0
445 415 -444 0
-446 -409 0
-446 445 0
446 409 -445 0
-447 -402 0
-447 446 0
447 402 -446 0
-448 -395 0
-448 447 0
448 395 -447 0
-449 -388 0
-449 448 0
449 388 -448 0
-450 -67 0
-450 449 0
450 67 -449 0
-451 67 0
-451 -449 0
451 -67 449 0
-452 -450 0
-452 -451 0
452 450 451 0
-453 -68 0
-453 3 0
453 68 -3 0
-454 68 0
-454 -3 0
454 -68 3 0
-455 -453 0
-455 -454 0
455 453 454 0
-456 452 0
-456 455 0
456 -452 -455 0
-457 -69 0
-457 12 0
457 69 -12 0
-458 69 0
-458 -12 0
458 -69 12 0
-459 -457 0
-459 -458 0
459 457 458 0
-460 -70 0
-460 4 0
460 70 -4 0
-461 70 0
-461 -4 0
461 -70 4 0
-462 -460 0
-462 -461 0
462 460 461 0
-463 459 0
-463 462 0
463 -459 -462 0
-464 456 0
-464 463 0
464 -456 -463 0
-465 377 0
-465 464 0
465 -377 -464 0
-466 -356 0
-466 -360 0
466 356 360 0
-467 -358 0
-467 -466 0
467 358 466 0
-468 -71 0
-468 467 0
468 71 -467 0
-469 71 0
-469 -467 0
469 -71 467 0
-470 -468 0
-470 -469 0
470 468 469 0
-471 -72 0
-471 5 0
471 72 -5 0
-472 72 0
-472 -5 0
472 -72 5 0
-473 -471 0
-473 -472 0
473 471 472 0
-474 470 0
-474 473 0
474 -470 -473 0
-475 -73 0
-475 23 0
475 73 -23 0
-476 73 0
-476 -23 0
476 -73 23 0
-477 -475 0
-477 -476 0
477 475 476 0
-478 -74 0
-478 14 0
478 74 -14 0
-479 74 0
-479 -14 0
479 -74 14 0
-480 -478 0
-480 -479 0
480 478 479 0
-481 477 0
-481 480 0
481 -477 -480 0
-482 474 0
-482 481 0
482 -474 -481 0
-483 -75 0
-483 6 0
483 75 -6 0
-484 75 0
-484 -6 0
484 -75 6 0
-485 -483 0
-485 -484 0
485 483 484 0
-486 -76 0
-486 22 0
486 76 -22 0
-487 76 0
-487 -22 0
487 -76 22 0
-488 -486 0
-488 -487 0
488 486 487 0
-489 485 0
-489 488 0
489 -485 -488 0
-490 -77 0
-490 16 0
490 77 -16 0
-491 77 0
-491 -16 0
491 -77 16 0
-492 -490 0
-492 -491 0
492 490 491 0
-493 -78 0
-493 2 0
493 78 -2 0
-494 78 0
-494 -2 0
494 -78 2 0
-495 -493 0
-495 -494 0
495 493 494 0
-496 492 0
-496 495 0
496 -492 -495 0
-497 489 0
-497 496 0
497 -489 -496 0
-498 482 0
-498 497 0
498 -482 -497 0
-499 465 0
-499 498 0
499 -465 -498 0
-500 -79 0
-500 7 0
500 79 -7 0
-501 79 0
-501 -7 0
501 -79 7 0
-502 -500 0
-502 -501 0
502 500 501 0
-503 -80 0
-503 20 0
503 80 -20 0
-504 80 0
-504 -20 0
504 -80 20 0
-505 -503 0
-505 -504 0
505 503 504 0
-506 502 0
-506 505 0
506 -502 -505 0
-507 -81 0
-507 21 0
507 81 -21 0
-508 81 0
-508 -21 0
508 -81 21 0
-509 -507 0
-509 -508 0
509 507 508 0
-510 -82 0
-510 18 0
510 82 -18 0
-511 82 0
-511 -18 0
511 -82 18 0
-512 -510 0
-512 -511 0
512 510 511 0
-513 509 0
-513 512 0
513 -509 -512 0
-514 506 0
-514 513 0
514 -506 -513 0
-515 -83 0
-515 8 0
515 83 -8 0
-516 83 0
-516 -8 0
516 -83 8 0
-517 -515 0
-517 -516 0
517 515 516 0
-518 -84 0
-518 19 0
518 84 -19 0
-519 84 0
-519 -19 0
519 -84 19 0
-520 -518 0
-520 -519 0
520 518 519 0
-521 517 0
-521 520 0
521 -517 -520 0
-522 -48 0
-522 257 0
522 48 -257 0
-523 -428 0
-523 -522 0
523 428 522 0
524 -266 0
524 -523 0
-524 266 523 0
-525 -85 0
-525 -524 0
525 85 524 0
-526 85 0
-526 524 0
526 -85 -524 0
-527 -525 0
-527 -526 0
527 525 526 0
-528 49 0
-528 26 0
528 -49 -26 0
-529 528 0
-529 -436 0
529 -528 436 0
-530 -528 0
-530 436 0
530 528 -436 0
-531 -529 0
-531 -530 0
531 529 530 0
-532 -431 0
-532 -531 0
532 431 531 0
-533 -427 0
-533 532 0
533 427 -532 0
-534 -421 0
-534 533 0
534 421 -533 0
-535 -415 0
-535 534 0
535 415 -534 0
-536 -409 0
-536 535 0
536 409 -535 0
-537 -402 0
-537 536 0
537 402 -536 0
-538 -395 0
-538 537 0
538 395 -537 0
-539 -388 0
-539 538 0
539 388 -538 0
-540 -86 0
-540 539 0
540 86 -539 0
-541 86 0
-541 -539 0
541 -86 539 0
-542 -540 0
-542 -541 0
542 540 541 0
-543 527 0
-543 542 0
543 -527 -542 0
-544 521 0
-544 543 0
544 -521 -543 0
-545 514 0
-545 544 0
545 -514 -544 0
-546 -50 0
-546 528 0
546 50 -528 0
-547 436 0
-547 546 0
547 -436 -546 0
-548 50 0
-548 26 0
548 -50 -26 0
-549 49 0
-549 436 0
549 -49 -436 0
-550 548 0
-550 -549 0
550 -548 549 0
-551 -547 0
-551 -550 0
551 547 550 0
-552 -431 0
-552 -551 0
552 431 551 0
-553 -427 0
-553 552 0
553 427 -552 0
-554 -421 0
-554 553 0
554 421 -553 0
-555 -415 0
-555 554 0
555 415 -554 0
-556 -409 0
-556 555 0
556 409 -555 0
-557 -402 0
-557 556 0
557 402 -556 0
-558 -395 0
-558 557 0
558 395 -557 0
-559 -388 0
-559 558 0
559 388 -558 0
-560 -87 0
-560 559 0
560 87 -559 0
-561 87 0
-561 -559 0
561 -87 559 0
-562 -560 0
-562 -561 0
562 560 561 0
-563 -88 0
-563 1 0
563 88 -1 0
-564 88 0
-564 -1 0
564 -88 1 0
-565 -563 0
-565 -564 0
565 563 564 0
-566 562 0
-566 565 0
566 -562 -565 0
-567 384 0
-567 -431 0
567 -384 431 0
-568 -427 0
-568 -567 0
568 427 567 0
-569 -421 0
-569 -568 0
569 421 568 0
-570 -415 0
-570 -569 0
570 415 569 0
-571 -409 0
-571 -570 0
571 409 570 0
-572 -402 0
-572 -571 0
572 402 571 0
-573 -395 0
-573 -572 0
573 395 572 0
-574 -388 0
-574 -573 0
574 388 573 0
-575 -89 0
-575 -574 0
575 89 574 0
-576 89 0
-576 574 0
576 -89 -574 0
-577 -575 0
-577 -576 0
577 575 576 0
-578 383 0
-578 -431 0
578 -383 431 0
-579 -421 0
-579 -578 0
579 421 578 0
-580 -409 0
-580 -579 0
580 409 579 0
-581 -395 0
-581 -580 0
581 395 580 0
-582 -90 0
-582 -581 0
582 90 581 0
-583 90 0
-583 581 0
583 -90 -581 0
-584 -582 0
-584 -583 0
584 582 583 0
-585 577 0
-585 584 0
585 -577 -584 0
-586 566 0
-586 585 0
586 -566 -585 0
-587 382 0
-587 -431 0
587 -382 431 0
-588 -409 0
-588 -587 0
588 409 587 0
-589 -91 0
-589 -588 0
589 91 588 0
-590 91 0
-590 588 0
590 -91 -588 0
-591 -589 0
-591 -590 0
591 589 590 0
-592 -92 0
-592 381 0
592 92 -381 0
-593 92 0
-593 -381 0
593 -92 381 0
-594 -592 0
-594 -593 0
594 592 593 0
-595 591 0
-595 594 0
595 -591 -594 0
-596 -93 0
-596 10 0
596 93 -10 0
-597 93 0
-597 -10 0
597 -93 10 0
-598 -596 0
-598 -597 0
598 596 597 0
-599 -94 0
-599 17 0
599 94 -17 0
-600 94 0
-600 -17 0
600 -94 17 0
-601 -599 0
-601 -600 0
601 599 600 0
-602 598 0
-602 601 0
602 -598 -601 0
-603 595 0
-603 602 0
603 -595 -602 0
-604 586 0
-604 603 0
604 -586 -603 0
-605 545 0
-605 604 0
605 -545 -604 0
-606 499 0
-606 605 0
606 -499 -605 0
-607 355 0
-607 606 0
607 -355 -606 0
-608 607 0
-608 250 0
608 -607 -250 0
-609 -12 0
-609 1 0
609 12 -1 0
-610 21 0
-610 -1 0
610 -21 1 0
-611 2 0
-611 610 0
611 -2 -610 0
-612 -275 0
-612 -280 0
612 275 280 0
-613 1 0
-613 612 0
613 -1 -612 0
-614 4 0
-614 -309 0
614 -4 309 0
-615 3 0
-615 -314 0
615 -3 314 0
-616 -614 0
-616 -615 0
616 614 615 0
-617 5 0
-617 -304 0
617 -5 304 0
-618 616 0
-618 -617 0
618 -616 617 0
-619 6 0
-619 -299 0
619 -6 299 0
-620 618 0
-620 -619 0
620 -618 619 0
-621 7 0
-621 -294 0
621 -7 294 0
-622 620 0
-622 -621 0
622 -620 621 0
-623 8 0
-623 -289 0
623 -8 289 0
-624 622 0
-624 -623 0
624 -622 623 0
-625 10 0
-625 -284 0
625 -10 284 0
-626 624 0
-626 -625 0
626 -624 625 0
-627 2 0
-627 626 0
627 -2 -626 0
-628 -34 0
-628 361 0
628 34 -361 0
-629 628 0
-629 277 0
629 -628 -277 0
-630 34 0
-630 361 0
630 -34 -361 0
-631 630 0
-631 282 0
631 -630 -282 0
-632 60 0
-632 277 0
632 -60 -277 0
-633 11 0
-633 274 0
633 -11 -274 0
-634 -29 0
-634 277 0
634 29 -277 0
-635 -11 0
-635 634 0
635 11 -634 0
-636 -62 0
-636 282 0
636 62 -282 0
-637 -9 0
-637 636 0
637 9 -636 0
-638 36 0
-638 284 0
638 -36 -284 0
-639 -10 0
-639 638 0
639 10 -638 0
-640 625 0
-640 -286 0
640 -625 286 0
-641 39 0
-641 289 0
641 -39 -289 0
-642 -8 0
-642 641 0
642 8 -641 0
-643 623 0
-643 -291 0
643 -623 291 0
-644 22 0
-644 -291 0
644 -22 291 0
-645 8 0
-645 644 0
645 -8 -644 0
-646 43 0
-646 294 0
646 -43 -294 0
-647 -7 0
-647 646 0
647 7 -646 0
-648 621 0
-648 -296 0
648 -621 296 0
-649 20 0
-649 -296 0
649 -20 296 0
-650 7 0
-650 649 0
650 -7 -649 0
-651 47 0
-651 299 0
651 -47 -299 0
-652 -6 0
-652 651 0
652 6 -651 0
-653 619 0
-653 -301 0
653 -619 301 0
-654 19 0
-654 -301 0
654 -19 301 0
-655 6 0
-655 654 0
655 -6 -654 0
-656 57 0
-656 304 0
656 -57 -304 0
-657 -5 0
-657 656 0
657 5 -656 0
-658 617 0
-658 -306 0
658 -617 306 0
-659 17 0
-659 -306 0
659 -17 306 0
-660 5 0
-660 659 0
660 -5 -659 0
-661 59 0
-661 309 0
661 -59 -309 0
-662 -4 0
-662 661 0
662 4 -661 0
-663 614 0
-663 -311 0
663 -614 311 0
-664 15 0
-664 -311 0
664 -15 311 0
-665 4 0
-665 664 0
665 -4 -664 0
-666 61 0
-666 314 0
666 -61 -314 0
-667 -3 0
-667 666 0
667 3 -666 0
-668 -615 0
-668 -379 0
668 615 379 0
669 -316 0
669 -668 0
-669 316 668 0
-670 -667 0
-670 669 0
670 667 -669 0
-671 -5 0
-671 -4 0
671 5 4 0
-672 -6 0
-672 671 0
672 6 -671 0
-673 -7 0
-673 672 0
673 7 -672 0
-674 -8 0
-674 673 0
674 8 -673 0
-675 -10 0
-675 674 0
675 10 -674 0
-676 3 0
-676 -675 0
676 -3 675 0
-677 670 0
-677 -676 0
677 -670 676 0
-678 -665 0
-678 677 0
678 665 -677 0
-679 -663 0
-679 678 0
679 663 -678 0
-680 -662 0
-680 679 0
680 662 -679 0
-681 -6 0
-681 -5 0
681 6 5 0
-682 -7 0
-682 681 0
682 7 -681 0
-683 -8 0
-683 682 0
683 8 -682 0
-684 -10 0
-684 683 0
684 10 -683 0
-685 4 0
-685 -684 0
685 -4 684 0
-686 680 0
-686 -685 0
686 -680 685 0
-687 -660 0
-687 686 0
687 660 -686 0
-688 -658 0
-688 687 0
688 658 -687 0
-689 -657 0
-689 688 0
689 657 -688 0
-690 -7 0
-690 -6 0
690 7 6 0
-691 -8 0
-691 690 0
691 8 -690 0
-692 -10 0
-692 691 0
692 10 -691 0
-693 5 0
-693 -692 0
693 -5 692 0
-694 689 0
-694 -693 0
694 -689 693 0
-695 -655 0
-695 694 0
695 655 -694 0
-696 -653 0
-696 695 0
696 653 -695 0
-697 -652 0
-697 696 0
697 652 -696 0
-698 -8 0
-698 -7 0
698 8 7 0
-699 -10 0
-699 698 0
699 10 -698 0
-700 6 0
-700 -699 0
700 -6 699 0
-701 697 0
-701 -700 0
701 -697 700 0
-702 -650 0
-702 701 0
702 650 -701 0
-703 -648 0
-703 702 0
703 648 -702 0
-704 -647 0
-704 703 0
704 647 -703 0
-705 -10 0
-705 -8 0
705 10 8 0
-706 7 0
-706 -705 0
706 -7 705 0
-707 704 0
-707 -706 0
707 -704 706 0
-708 -645 0
-708 707 0
708 645 -707 0
-709 -643 0
-709 708 0
709 643 -708 0
-710 -642 0
-710 709 0
710 642 -709 0
-711 23 0
-711 -286 0
711 -23 286 0
-712 -8 0
-712 -711 0
712 8 711 0
-713 10 0
-713 -712 0
713 -10 712 0
-714 710 0
-714 -713 0
714 -710 713 0
-715 -640 0
-715 714 0
715 640 -714 0
-716 -639 0
-716 715 0
716 639 -715 0
-717 -637 0
-717 716 0
717 637 -716 0
-718 -11 0
-718 -279 0
718 11 279 0
-719 9 0
-719 -718 0
719 -9 718 0
-720 717 0
-720 -719 0
720 -717 719 0
-721 -635 0
-721 720 0
721 635 -720 0
-722 -633 0
-722 721 0
722 633 -721 0
-723 -632 0
-723 722 0
723 632 -722 0
-724 -631 0
-724 723 0
724 631 -723 0
-725 -629 0
-725 724 0
725 629 -724 0
-726 -16 0
-726 -14 0
726 16 14 0
-727 -18 0
-727 726 0
727 18 -726 0
-728 2 0
-728 727 0
728 -2 -727 0
-729 615 0
-729 -728 0
729 -615 728 0
-730 725 0
-730 -729 0
730 -725 729 0
-731 -16 0
-731 14 0
731 16 -14 0
-732 -18 0
-732 731 0
732 18 -731 0
-733 -614 0
-733 -732 0
733 614 732 0
-734 614 0
-734 732 0
734 -614 -732 0
-735 2 0
-735 734 0
735 -2 -734 0
-736 -733 0
-736 -735 0
736 733 735 0
-737 730 0
-737 -736 0
737 -730 736 0
-738 16 0
-738 -14 0
738 -16 14 0
-739 -18 0
-739 738 0
739 18 -738 0
-740 -617 0
-740 -739 0
740 617 739 0
-741 617 0
-741 739 0
741 -617 -739 0
-742 2 0
-742 741 0
742 -2 -741 0
-743 -740 0
-743 -742 0
743 740 742 0
-744 737 0
-744 -743 0
744 -737 743 0
-745 16 0
-745 14 0
745 -16 -14 0
-746 -18 0
-746 745 0
746 18 -745 0
-747 -619 0
-747 -746 0
747 619 746 0
-748 619 0
-748 746 0
748 -619 -746 0
-749 2 0
-749 748 0
749 -2 -748 0
-750 -747 0
-750 -749 0
750 747 749 0
-751 744 0
-751 -750 0
751 -744 750 0
-752 18 0
-752 726 0
752 -18 -726 0
-753 -621 0
-753 -752 0
753 621 752 0
-754 621 0
-754 752 0
754 -621 -752 0
-755 2 0
-755 754 0
755 -2 -754 0
-756 -753 0
-756 -755 0
756 753 755 0
-757 751 0
-757 -756 0
757 -751 756 0
-758 18 0
-758 731 0
758 -18 -731 0
-759 -623 0
-759 -758 0
759 623 758 0
-760 623 0
-760 758 0
760 -623 -758 0
-761 2 0
-761 760 0
761 -2 -760 0
-762 -759 0
-762 -761 0
762 759 761 0
-763 757 0
-763 -762 0
763 -757 762 0
-764 18 0
-764 738 0
764 -18 -738 0
-765 -625 0
-765 -764 0
765 625 764 0
-766 625 0
-766 764 0
766 -625 -764 0
-767 2 0
-767 766 0
767 -2 -766 0
-768 -765 0
-768 -767 0
768 765 767 0
-769 763 0
-769 -768 0
769 -763 768 0
-770 -627 0
-770 769 0
770 627 -769 0
-771 -1 0
-771 -612 0
771 1 612 0
-772 770 0
-772 -771 0
772 -770 771 0
-773 -613 0
-773 772 0
773 613 -772 0
-774 -611 0
-774 773 0
774 611 -773 0
-775 -609 0
-775 774 0
775 609 -774 0
-776 -548 0
-776 775 0
776 548 -775 0
-777 -776 0
-777 339 0
777 776 -339 0
-778 100 0
-778 777 0
778 -100 -777 0
-779 -59 0
-779 -58 0
779 59 58 0
-780 -61 0
-780 -60 0
780 61 60 0
-781 779 0
-781 780 0
781 -779 -780 0
-782 -62 0
-782 781 0
782 62 -781 0
-783 -27 0
-783 -26 0
783 27 26 0
-784 -29 0
-784 -28 0
784 29 28 0
-785 783 0
-785 784 0
785 -783 -784 0
-786 -31 0
-786 -30 0
786 31 30 0
-787 -33 0
-787 -32 0
787 33 32 0
-788 786 0
-788 787 0
788 -786 -787 0
-789 785 0
-789 788 0
789 -785 -788 0
-790 -35 0
-790 -34 0
790 35 34 0
-791 -37 0
-791 -36 0
791 37 36 0
-792 790 0
-792 791 0
792 -790 -791 0
-793 -39 0
-793 -38 0
793 39 38 0
-794 -41 0
-794 -40 0
794 41 40 0
-795 793 0
-795 794 0
795 -793 -794 0
-796 792 0
-796 795 0
796 -792 -795 0
-797 789 0
-797 796 0
797 -789 -796 0
-798 -43 0
-798 -42 0
798 43 42 0
-799 -45 0
-799 -44 0
799 45 44 0
-800 798 0
-800 799 0
800 -798 -799 0
-801 -47 0
-801 -46 0
801 47 46 0
-802 -49 0
-802 -48 0
802 49 48 0
-803 801 0
-803 802 0
803 -801 -802 0
-804 800 0
-804 803 0
804 -800 -803 0
-805 -51 0
-805 -50 0
805 51 50 0
-806 -53 0
-806 -52 0
806 53 52 0
-807 805 0
-807 806 0
807 -805 -806 0
-808 -55 0
-808 -54 0
808 55 54 0
-809 -57 0
-809 -56 0
809 57 56 0
-810 808 0
-810 809 0
810 -808 -809 0
-811 807 0
-811 810 0
811 -807 -810 0
-812 804 0
-812 811 0
812 -804 -811 0
-813 797 0
-813 812 0
813 -797 -812 0
-814 782 0
-814 813 0
814 -782 -813 0
-815 -100 0
-815 814 0
815 100 -814 0
-816 -778 0
-816 -815 0
816 778 815 0
-817 -608 0
-817 816 0
817 608 -816 0
-818 -252 0
-818 817 0
818 252 -817 0
818 0
